WARNING: for repeatability, setting FPU to use double precision
============================[ Problem Statistics ]=============================
|                                                                             |
|  Number of variables:            50                                         |
|  Number of clauses:             218                                         |
|  Parse time:                   0.00 s                                       |
|                                                                             |
============================[ Search Statistics ]==============================
| Conflicts |          ORIGINAL         |          LEARNT          | Progress |
|           |    Vars  Clauses Literals |    Limit  Clauses Lit/Cl |          |
===============================================================================
===============================================================================
restarts              : 1
conflicts             : 59             (40328 /sec)
decisions             : 65             (0.00 % random) (44429 /sec)
propagations          : 726            (496241 /sec)
conflict literals     : 225            (13.46 % deleted)
Memory used           : 20.00 MB
CPU time              : 0.001463 s

UNSATISFIABLE
